certificates/rado_a10_c178_N19.cnf
c Rad2 upper bound instance: x1 + 10*x2 - x3 = 178, interval [1,19]
p cnf 19 72
1 3 18 0
-1 -3 -18 0
1 13 19 0
-1 -13 -19 0
2 4 18 0
-2 -4 -18 0
2 14 19 0
-2 -14 -19 0
3 5 18 0
-3 -5 -18 0
3 15 19 0
-3 -15 -19 0
4 6 18 0
-4 -6 -18 0
4 16 19 0
-4 -16 -19 0
5 7 18 0
-5 -7 -18 0
5 17 19 0
-5 -17 -19 0
6 8 18 0
-6 -8 -18 0
6 18 19 0
-6 -18 -19 0
7 9 18 0
-7 -9 -18 0
7 19 0
-7 -19 0
8 10 18 0
-8 -10 -18 0
1 9 17 0
-1 -9 -17 0
9 11 18 0
-9 -11 -18 0
2 10 17 0
-2 -10 -17 0
10 12 18 0
-10 -12 -18 0
3 11 17 0
-3 -11 -17 0
11 13 18 0
-11 -13 -18 0
4 12 17 0
-4 -12 -17 0
12 14 18 0
-12 -14 -18 0
5 13 17 0
-5 -13 -17 0
13 15 18 0
-13 -15 -18 0
6 14 17 0
-6 -14 -17 0
14 16 18 0
-14 -16 -18 0
7 15 17 0
-7 -15 -17 0
15 17 18 0
-15 -17 -18 0
8 16 17 0
-8 -16 -17 0
16 18 0
-16 -18 0
9 17 0
-9 -17 0
17 18 19 0
-17 -18 -19 0
10 17 18 0
-10 -17 -18 0
1 16 19 0
-1 -16 -19 0
11 17 19 0
-11 -17 -19 0
