certificates/rado_a10_c178_N19.drat
-18 -19 0
-19 0
7 0
18 0
-16 0
-5 0
-9 0
1 0
4 0
17 0
-3 0
-2 0
-6 0
-12 0
-15 0
-10 0
0
